============================[ Problem Statistics ]=============================|                                                                             ||  Number of variables:          4242                                         ||  Number of clauses:           10200                                         ||  Parse time:                   0.60 s                                       ||                                                                             |============================[ Search Statistics ]==============================| Conflicts |          ORIGINAL         |          LEARNT          | Progress ||           |    Vars  Clauses Literals |    Limit  Clauses Lit/Cl |          |===============================================================================|       100 |    1591     6405   937756 |     2348      100     53 | 62.501 % ||       250 |    1591     6405   937756 |     2583      250     75 | 62.495 % |===============================================================================restarts              : 3conflicts             : 324            (357 /sec)decisions             : 588            (0.00 % random) (648 /sec)propagations          : 11900          (13120 /sec)conflict literals     : 25953          (94.68 % deleted)CPU time              : 0.907 sSATISFIABLE